10
1 0 12
2 0 62
2 1 57
3 0 38
3 1 26
3 2 14
4 0 2
4 1 62
4 2 64
4 3 53
5 0 8
5 1 75
5 2 44
5 3 4
5 4 30
6 0 14
6 1 8
6 2 24
6 3 72
6 4 13
6 5 51
7 0 66
7 1 12
7 2 16
7 3 1
7 4 60
7 5 15
7 6 57
8 0 49
8 1 74
8 2 51
8 3 29
8 4 49
8 5 72
8 6 66
8 7 62
9 0 6
9 1 28
9 2 70
9 3 60
9 4 75
9 5 39
9 6 60
9 7 36
9 8 65
